p cnf 960 2463
51 -2 -693 0
-51 2 0
-51 693 0
52 -51 -3 0
-52 51 0
-52 3 0
53 -4 -1 0
-53 4 0
-53 1 0
54 -53 -694 0
-54 53 0
-54 694 0
55 -695 -696 0
-55 695 0
-55 696 0
56 -6 -694 0
-56 6 0
-56 694 0
57 -56 -697 0
-57 56 0
-57 697 0
58 -698 -55 0
-58 698 0
-58 55 0
59 -9 -8 0
-59 9 0
-59 8 0
60 -59 -10 0
-60 59 0
-60 10 0
61 -699 -58 0
-61 699 0
-61 58 0
62 -700 -701 0
-62 700 0
-62 701 0
63 -62 -702 0
-63 62 0
-63 702 0
64 -703 -61 0
-64 703 0
-64 61 0
65 -13 -704 0
-65 13 0
-65 704 0
66 -65 -14 0
-66 65 0
-66 14 0
67 -705 -64 0
-67 705 0
-67 64 0
68 -706 -8 0
-68 706 0
-68 8 0
69 -68 -707 0
-69 68 0
-69 707 0
70 -708 -67 0
-70 708 0
-70 67 0
71 -17 -709 0
-71 17 0
-71 709 0
72 -71 -710 0
-72 71 0
-72 710 0
73 -711 -70 0
-73 711 0
-73 70 0
74 -712 -713 0
-74 712 0
-74 713 0
75 -74 -714 0
-75 74 0
-75 714 0
76 -715 -73 0
-76 715 0
-76 73 0
77 -22 -7 0
-77 22 0
-77 7 0
78 -77 -716 0
-78 77 0
-78 716 0
79 -717 -76 0
-79 717 0
-79 76 0
80 -23 -701 0
-80 23 0
-80 701 0
81 -80 -24 0
-81 80 0
-81 24 0
82 -718 -79 0
-82 718 0
-82 79 0
83 -719 -7 0
-83 719 0
-83 7 0
84 -83 -15 0
-84 83 0
-84 15 0
85 -720 -82 0
-85 720 0
-85 82 0
86 -25 -11 0
-86 25 0
-86 11 0
87 -86 -9 0
-87 86 0
-87 9 0
88 -721 -85 0
-88 721 0
-88 85 0
89 -722 -8 0
-89 722 0
-89 8 0
90 -89 -7 0
-90 89 0
-90 7 0
91 -723 -88 0
-91 723 0
-91 88 0
92 -28 -27 0
-92 28 0
-92 27 0
93 -92 -6 0
-93 92 0
-93 6 0
94 -724 -91 0
-94 724 0
-94 91 0
95 -65 -725 0
-95 65 0
-95 725 0
96 -726 -94 0
-96 726 0
-96 94 0
97 -18 -2 0
-97 18 0
-97 2 0
98 -97 -3 0
-98 97 0
-98 3 0
99 -727 -96 0
-99 727 0
-99 96 0
100 -23 -693 0
-100 23 0
-100 693 0
101 -100 -713 0
-101 100 0
-101 713 0
102 -728 -99 0
-102 728 0
-102 99 0
103 -707 -6 0
-103 707 0
-103 6 0
104 -103 -30 0
-104 103 0
-104 30 0
105 -729 -102 0
-105 729 0
-105 102 0
106 -31 -730 0
-106 31 0
-106 730 0
107 -106 -731 0
-107 106 0
-107 731 0
108 -732 -105 0
-108 732 0
-108 105 0
109 -33 -733 0
-109 33 0
-109 733 0
110 -109 -29 0
-110 109 0
-110 29 0
111 -734 -108 0
-111 734 0
-111 108 0
112 -735 -11 0
-112 735 0
-112 11 0
113 -112 -719 0
-113 112 0
-113 719 0
114 -736 -111 0
-114 736 0
-114 111 0
115 -737 -706 0
-115 737 0
-115 706 0
116 -115 -738 0
-116 115 0
-116 738 0
117 -739 -114 0
-117 739 0
-117 114 0
118 -740 -13 0
-118 740 0
-118 13 0
119 -118 -693 0
-119 118 0
-119 693 0
120 -741 -117 0
-120 741 0
-120 117 0
121 -738 -713 0
-121 738 0
-121 713 0
122 -121 -716 0
-122 121 0
-122 716 0
123 -742 -120 0
-123 742 0
-123 120 0
124 -37 -743 0
-124 37 0
-124 743 0
125 -124 -701 0
-125 124 0
-125 701 0
126 -744 -123 0
-126 744 0
-126 123 0
127 -38 -25 0
-127 38 0
-127 25 0
128 -127 -30 0
-128 127 0
-128 30 0
129 -745 -126 0
-129 745 0
-129 126 0
130 -746 -14 0
-130 746 0
-130 14 0
131 -130 -16 0
-131 130 0
-131 16 0
132 -747 -129 0
-132 747 0
-132 129 0
133 -31 -701 0
-133 31 0
-133 701 0
134 -133 -748 0
-134 133 0
-134 748 0
135 -749 -132 0
-135 749 0
-135 132 0
136 -737 -6 0
-136 737 0
-136 6 0
137 -136 -706 0
-137 136 0
-137 706 0
138 -750 -135 0
-138 750 0
-138 135 0
139 -29 -694 0
-139 29 0
-139 694 0
140 -139 -2 0
-140 139 0
-140 2 0
141 -751 -138 0
-141 751 0
-141 138 0
142 -40 -725 0
-142 40 0
-142 725 0
143 -142 -41 0
-143 142 0
-143 41 0
144 -752 -141 0
-144 752 0
-144 141 0
145 -43 -42 0
-145 43 0
-145 42 0
146 -145 -5 0
-146 145 0
-146 5 0
147 -753 -144 0
-147 753 0
-147 144 0
148 -29 -1 0
-148 29 0
-148 1 0
149 -148 -735 0
-149 148 0
-149 735 0
150 -754 -147 0
-150 754 0
-150 147 0
151 -44 -722 0
-151 44 0
-151 722 0
152 -151 -42 0
-152 151 0
-152 42 0
153 -755 -150 0
-153 755 0
-153 150 0
154 -756 -730 0
-154 756 0
-154 730 0
155 -154 -2 0
-155 154 0
-155 2 0
156 -757 -153 0
-156 757 0
-156 153 0
157 -43 -26 0
-157 43 0
-157 26 0
158 -157 -758 0
-158 157 0
-158 758 0
159 -759 -156 0
-159 759 0
-159 156 0
160 -31 -23 0
-160 31 0
-160 23 0
161 -160 -2 0
-161 160 0
-161 2 0
162 -760 -159 0
-162 760 0
-162 159 0
163 -713 -701 0
-163 713 0
-163 701 0
164 -163 -24 0
-164 163 0
-164 24 0
165 -761 -162 0
-165 761 0
-165 162 0
166 -712 -693 0
-166 712 0
-166 693 0
167 -166 -707 0
-167 166 0
-167 707 0
168 -762 -165 0
-168 762 0
-168 165 0
169 -20 -11 0
-169 20 0
-169 11 0
170 -169 -731 0
-170 169 0
-170 731 0
171 -763 -168 0
-171 763 0
-171 168 0
172 -28 -11 0
-172 28 0
-172 11 0
173 -172 -758 0
-173 172 0
-173 758 0
174 -764 -171 0
-174 764 0
-174 171 0
175 -36 -765 0
-175 36 0
-175 765 0
176 -175 -16 0
-176 175 0
-176 16 0
177 -766 -174 0
-177 766 0
-177 174 0
178 -719 -767 0
-178 719 0
-178 767 0
179 -178 -768 0
-179 178 0
-179 768 0
180 -769 -177 0
-180 769 0
-180 177 0
181 -19 -733 0
-181 19 0
-181 733 0
182 -181 -14 0
-182 181 0
-182 14 0
183 -770 -180 0
-183 770 0
-183 180 0
184 -11 -8 0
-184 11 0
-184 8 0
185 -184 -768 0
-185 184 0
-185 768 0
186 -771 -183 0
-186 771 0
-186 183 0
187 -133 -735 0
-187 133 0
-187 735 0
188 -772 -186 0
-188 772 0
-188 186 0
189 -33 -32 0
-189 33 0
-189 32 0
190 -189 -758 0
-190 189 0
-190 758 0
191 -773 -188 0
-191 773 0
-191 188 0
192 -765 -6 0
-192 765 0
-192 6 0
193 -192 -774 0
-193 192 0
-193 774 0
194 -775 -191 0
-194 775 0
-194 191 0
195 -17 -694 0
-195 17 0
-195 694 0
196 -195 -18 0
-196 195 0
-196 18 0
197 -776 -194 0
-197 776 0
-197 194 0
198 -38 -31 0
-198 38 0
-198 31 0
199 -198 -5 0
-199 198 0
-199 5 0
200 -777 -197 0
-200 777 0
-200 197 0
201 -778 -26 0
-201 778 0
-201 26 0
202 -201 -39 0
-202 201 0
-202 39 0
203 -779 -200 0
-203 779 0
-203 200 0
204 -780 -5 0
-204 780 0
-204 5 0
205 -204 -30 0
-205 204 0
-205 30 0
206 -781 -203 0
-206 781 0
-206 203 0
207 -709 -6 0
-207 709 0
-207 6 0
208 -207 -9 0
-208 207 0
-208 9 0
209 -782 -206 0
-209 782 0
-209 206 0
210 -27 -700 0
-210 27 0
-210 700 0
211 -210 -34 0
-211 210 0
-211 34 0
212 -783 -209 0
-212 783 0
-212 209 0
213 -713 -14 0
-213 713 0
-213 14 0
214 -213 -22 0
-214 213 0
-214 22 0
215 -784 -212 0
-215 784 0
-215 212 0
216 -27 -25 0
-216 27 0
-216 25 0
217 -216 -40 0
-217 216 0
-217 40 0
218 -785 -215 0
-218 785 0
-218 215 0
219 -786 -787 0
-219 786 0
-219 787 0
220 -219 -788 0
-220 219 0
-220 788 0
221 -789 -218 0
-221 789 0
-221 218 0
222 -722 -19 0
-222 722 0
-222 19 0
223 -222 -2 0
-223 222 0
-223 2 0
224 -790 -221 0
-224 790 0
-224 221 0
225 -722 -694 0
-225 722 0
-225 694 0
226 -225 -16 0
-226 225 0
-226 16 0
227 -791 -224 0
-227 791 0
-227 224 0
228 -780 -30 0
-228 780 0
-228 30 0
229 -228 -716 0
-229 228 0
-229 716 0
230 -792 -227 0
-230 792 0
-230 227 0
231 -38 -28 0
-231 38 0
-231 28 0
232 -231 -2 0
-232 231 0
-232 2 0
233 -793 -230 0
-233 793 0
-233 230 0
234 -794 -704 0
-234 794 0
-234 704 0
235 -234 -702 0
-235 234 0
-235 702 0
236 -795 -233 0
-236 795 0
-236 233 0
237 -38 -36 0
-237 38 0
-237 36 0
238 -237 -780 0
-238 237 0
-238 780 0
239 -796 -236 0
-239 796 0
-239 236 0
240 -22 -8 0
-240 22 0
-240 8 0
241 -240 -719 0
-241 240 0
-241 719 0
242 -797 -239 0
-242 797 0
-242 239 0
243 -748 -18 0
-243 748 0
-243 18 0
244 -243 -707 0
-244 243 0
-244 707 0
245 -798 -242 0
-245 798 0
-245 242 0
246 -42 -694 0
-246 42 0
-246 694 0
247 -246 -29 0
-247 246 0
-247 29 0
248 -799 -245 0
-248 799 0
-248 245 0
249 -774 -735 0
-249 774 0
-249 735 0
250 -249 -39 0
-250 249 0
-250 39 0
251 -800 -248 0
-251 800 0
-251 248 0
252 -788 -26 0
-252 788 0
-252 26 0
253 -252 -710 0
-253 252 0
-253 710 0
254 -801 -251 0
-254 801 0
-254 251 0
255 -722 -802 0
-255 722 0
-255 802 0
256 -255 -697 0
-256 255 0
-256 697 0
257 -803 -254 0
-257 803 0
-257 254 0
258 -39 -8 0
-258 39 0
-258 8 0
259 -258 -2 0
-259 258 0
-259 2 0
260 -804 -257 0
-260 804 0
-260 257 0
261 -28 -8 0
-261 28 0
-261 8 0
262 -261 -738 0
-262 261 0
-262 738 0
263 -805 -260 0
-263 805 0
-263 260 0
264 -27 -11 0
-264 27 0
-264 11 0
265 -264 -806 0
-265 264 0
-265 806 0
266 -807 -263 0
-266 807 0
-266 263 0
267 -47 -14 0
-267 47 0
-267 14 0
268 -267 -808 0
-268 267 0
-268 808 0
269 -809 -266 0
-269 809 0
-269 266 0
270 -35 -693 0
-270 35 0
-270 693 0
271 -270 -707 0
-271 270 0
-271 707 0
272 -810 -269 0
-272 810 0
-272 269 0
273 -737 -31 0
-273 737 0
-273 31 0
274 -273 -811 0
-274 273 0
-274 811 0
275 -812 -272 0
-275 812 0
-275 272 0
276 -15 -733 0
-276 15 0
-276 733 0
277 -276 -808 0
-277 276 0
-277 808 0
278 -813 -275 0
-278 813 0
-278 275 0
279 -25 -712 0
-279 25 0
-279 712 0
280 -279 -707 0
-280 279 0
-280 707 0
281 -814 -278 0
-281 814 0
-281 278 0
282 -713 -13 0
-282 713 0
-282 13 0
283 -282 -18 0
-283 282 0
-283 18 0
284 -815 -281 0
-284 815 0
-284 281 0
285 -27 -6 0
-285 27 0
-285 6 0
286 -285 -706 0
-286 285 0
-286 706 0
287 -816 -284 0
-287 816 0
-287 284 0
288 -774 -8 0
-288 774 0
-288 8 0
289 -288 -32 0
-289 288 0
-289 32 0
290 -817 -287 0
-290 817 0
-290 287 0
291 -34 -31 0
-291 34 0
-291 31 0
292 -291 -706 0
-292 291 0
-292 706 0
293 -818 -290 0
-293 818 0
-293 290 0
294 -34 -697 0
-294 34 0
-294 697 0
295 -294 -719 0
-295 294 0
-295 719 0
296 -819 -293 0
-296 819 0
-296 293 0
297 -743 -20 0
-297 743 0
-297 20 0
298 -297 -719 0
-298 297 0
-298 719 0
299 -820 -296 0
-299 820 0
-299 296 0
300 -19 -700 0
-300 19 0
-300 700 0
301 -300 -821 0
-301 300 0
-301 821 0
302 -822 -299 0
-302 822 0
-302 299 0
303 -37 -725 0
-303 37 0
-303 725 0
304 -303 -10 0
-304 303 0
-304 10 0
305 -823 -302 0
-305 823 0
-305 302 0
306 -700 -704 0
-306 700 0
-306 704 0
307 -306 -824 0
-307 306 0
-307 824 0
308 -825 -305 0
-308 825 0
-308 305 0
309 -806 -730 0
-309 806 0
-309 730 0
310 -309 -16 0
-310 309 0
-310 16 0
311 -826 -308 0
-311 826 0
-311 308 0
312 -746 -765 0
-312 746 0
-312 765 0
313 -312 -39 0
-313 312 0
-313 39 0
314 -827 -311 0
-314 827 0
-314 311 0
315 -758 -36 0
-315 758 0
-315 36 0
316 -315 -706 0
-316 315 0
-316 706 0
317 -828 -314 0
-317 828 0
-317 314 0
318 -41 -12 0
-318 41 0
-318 12 0
319 -318 -47 0
-319 318 0
-319 47 0
320 -829 -317 0
-320 829 0
-320 317 0
321 -154 -738 0
-321 154 0
-321 738 0
322 -830 -320 0
-322 830 0
-322 320 0
323 -37 -11 0
-323 37 0
-323 11 0
324 -323 -40 0
-324 323 0
-324 40 0
325 -831 -322 0
-325 831 0
-325 322 0
326 -15 -702 0
-326 15 0
-326 702 0
327 -326 -821 0
-327 326 0
-327 821 0
328 -832 -325 0
-328 832 0
-328 325 0
329 -28 -722 0
-329 28 0
-329 722 0
330 -329 -833 0
-330 329 0
-330 833 0
331 -834 -328 0
-331 834 0
-331 328 0
332 -712 -19 0
-332 712 0
-332 19 0
333 -332 -15 0
-333 332 0
-333 15 0
334 -835 -331 0
-334 835 0
-334 331 0
335 -722 -746 0
-335 722 0
-335 746 0
336 -335 -707 0
-336 335 0
-336 707 0
337 -836 -334 0
-337 836 0
-337 334 0
338 -38 -788 0
-338 38 0
-338 788 0
339 -338 -731 0
-339 338 0
-339 731 0
340 -837 -337 0
-340 837 0
-340 337 0
341 -11 -697 0
-341 11 0
-341 697 0
342 -341 -47 0
-342 341 0
-342 47 0
343 -838 -340 0
-343 838 0
-343 340 0
344 -756 -710 0
-344 756 0
-344 710 0
345 -344 -706 0
-345 344 0
-345 706 0
346 -839 -343 0
-346 839 0
-346 343 0
347 -840 -719 0
-347 840 0
-347 719 0
348 -347 -10 0
-348 347 0
-348 10 0
349 -841 -346 0
-349 841 0
-349 346 0
350 -118 -5 0
-350 118 0
-350 5 0
351 -842 -349 0
-351 842 0
-351 349 0
352 -46 -43 0
-352 46 0
-352 43 0
353 -352 -34 0
-353 352 0
-353 34 0
354 -843 -351 0
-354 843 0
-354 351 0
355 -17 -700 0
-355 17 0
-355 700 0
356 -355 -694 0
-356 355 0
-356 694 0
357 -844 -354 0
-357 844 0
-357 354 0
358 -731 -14 0
-358 731 0
-358 14 0
359 -358 -748 0
-359 358 0
-359 748 0
360 -845 -357 0
-360 845 0
-360 357 0
361 -808 -714 0
-361 808 0
-361 714 0
362 -361 -768 0
-362 361 0
-362 768 0
363 -846 -360 0
-363 846 0
-363 360 0
364 -840 -693 0
-364 840 0
-364 693 0
365 -364 -12 0
-365 364 0
-365 12 0
366 -847 -363 0
-366 847 0
-366 363 0
367 -38 -13 0
-367 38 0
-367 13 0
368 -367 -719 0
-368 367 0
-368 719 0
369 -848 -366 0
-369 848 0
-369 366 0
370 -16 -767 0
-370 16 0
-370 767 0
371 -370 -808 0
-371 370 0
-371 808 0
372 -849 -369 0
-372 849 0
-372 369 0
373 -740 -704 0
-373 740 0
-373 704 0
374 -373 -20 0
-374 373 0
-374 20 0
375 -850 -372 0
-375 850 0
-375 372 0
376 -806 -740 0
-376 806 0
-376 740 0
377 -376 -737 0
-377 376 0
-377 737 0
378 -851 -375 0
-378 851 0
-378 375 0
379 -175 -21 0
-379 175 0
-379 21 0
380 -852 -378 0
-380 852 0
-380 378 0
381 -22 -12 0
-381 22 0
-381 12 0
382 -381 -30 0
-382 381 0
-382 30 0
383 -853 -380 0
-383 853 0
-383 380 0
384 -31 -7 0
-384 31 0
-384 7 0
385 -384 -738 0
-385 384 0
-385 738 0
386 -854 -383 0
-386 854 0
-386 383 0
387 -46 -733 0
-387 46 0
-387 733 0
388 -387 -738 0
-388 387 0
-388 738 0
389 -855 -386 0
-389 855 0
-389 386 0
390 -37 -746 0
-390 37 0
-390 746 0
391 -390 -735 0
-391 390 0
-391 735 0
392 -856 -389 0
-392 856 0
-392 389 0
393 -725 -713 0
-393 725 0
-393 713 0
394 -393 -697 0
-394 393 0
-394 697 0
395 -857 -392 0
-395 857 0
-395 392 0
396 -30 -6 0
-396 30 0
-396 6 0
397 -396 -768 0
-397 396 0
-397 768 0
398 -858 -395 0
-398 858 0
-398 395 0
399 -47 -697 0
-399 47 0
-399 697 0
400 -399 -10 0
-400 399 0
-400 10 0
401 -859 -398 0
-401 859 0
-401 398 0
402 -42 -833 0
-402 42 0
-402 833 0
403 -402 -702 0
-403 402 0
-403 702 0
404 -860 -401 0
-404 860 0
-404 401 0
405 -730 -765 0
-405 730 0
-405 765 0
406 -405 -833 0
-406 405 0
-406 833 0
407 -861 -404 0
-407 861 0
-407 404 0
408 -38 -32 0
-408 38 0
-408 32 0
409 -408 -738 0
-409 408 0
-409 738 0
410 -862 -407 0
-410 862 0
-410 407 0
411 -38 -6 0
-411 38 0
-411 6 0
412 -411 -712 0
-412 411 0
-412 712 0
413 -863 -410 0
-413 863 0
-413 410 0
414 -774 -712 0
-414 774 0
-414 712 0
415 -414 -694 0
-415 414 0
-415 694 0
416 -864 -413 0
-416 864 0
-416 413 0
417 -34 -811 0
-417 34 0
-417 811 0
418 -417 -768 0
-418 417 0
-418 768 0
419 -865 -416 0
-419 865 0
-419 416 0
420 -32 -700 0
-420 32 0
-420 700 0
421 -420 -24 0
-421 420 0
-421 24 0
422 -866 -419 0
-422 866 0
-422 419 0
423 -12 -733 0
-423 12 0
-423 733 0
424 -423 -10 0
-424 423 0
-424 10 0
425 -867 -422 0
-425 867 0
-425 422 0
426 -748 -8 0
-426 748 0
-426 8 0
427 -426 -10 0
-427 426 0
-427 10 0
428 -868 -425 0
-428 868 0
-428 425 0
429 -22 -713 0
-429 22 0
-429 713 0
430 -429 -719 0
-430 429 0
-430 719 0
431 -869 -428 0
-431 869 0
-431 428 0
432 -37 -35 0
-432 37 0
-432 35 0
433 -432 -40 0
-433 432 0
-433 40 0
434 -870 -431 0
-434 870 0
-434 431 0
435 -787 -13 0
-435 787 0
-435 13 0
436 -435 -719 0
-436 435 0
-436 719 0
437 -871 -434 0
-437 871 0
-437 434 0
438 -786 -733 0
-438 786 0
-438 733 0
439 -438 -872 0
-439 438 0
-439 872 0
440 -873 -437 0
-440 873 0
-440 437 0
441 -730 -11 0
-441 730 0
-441 11 0
442 -441 -731 0
-442 441 0
-442 731 0
443 -874 -440 0
-443 874 0
-443 440 0
444 -45 -33 0
-444 45 0
-444 33 0
445 -444 -735 0
-445 444 0
-445 735 0
446 -875 -443 0
-446 875 0
-446 443 0
447 -43 -1 0
-447 43 0
-447 1 0
448 -447 -833 0
-448 447 0
-448 833 0
449 -876 -446 0
-449 876 0
-449 446 0
450 -34 -725 0
-450 34 0
-450 725 0
451 -450 -12 0
-451 450 0
-451 12 0
452 -877 -449 0
-452 877 0
-452 449 0
453 -778 -765 0
-453 778 0
-453 765 0
454 -453 -738 0
-454 453 0
-454 738 0
455 -878 -452 0
-455 878 0
-455 452 0
456 -46 -28 0
-456 46 0
-456 28 0
457 -456 -716 0
-457 456 0
-457 716 0
458 -879 -455 0
-458 879 0
-458 455 0
459 -26 -746 0
-459 26 0
-459 746 0
460 -459 -824 0
-460 459 0
-460 824 0
461 -880 -458 0
-461 880 0
-461 458 0
462 -774 -872 0
-462 774 0
-462 872 0
463 -462 -881 0
-463 462 0
-463 881 0
464 -882 -461 0
-464 882 0
-464 461 0
465 -18 -12 0
-465 18 0
-465 12 0
466 -465 -2 0
-466 465 0
-466 2 0
467 -883 -464 0
-467 883 0
-467 464 0
468 -17 -13 0
-468 17 0
-468 13 0
469 -468 -20 0
-469 468 0
-469 20 0
470 -884 -467 0
-470 884 0
-470 467 0
471 -33 -27 0
-471 33 0
-471 27 0
472 -471 -20 0
-472 471 0
-472 20 0
473 -885 -470 0
-473 885 0
-473 470 0
474 -713 -700 0
-474 713 0
-474 700 0
475 -474 -39 0
-475 474 0
-475 39 0
476 -886 -473 0
-476 886 0
-476 473 0
477 -59 -7 0
-477 59 0
-477 7 0
478 -887 -476 0
-478 887 0
-478 476 0
479 -788 -12 0
-479 788 0
-479 12 0
480 -479 -707 0
-480 479 0
-480 707 0
481 -888 -478 0
-481 888 0
-481 478 0
482 -46 -8 0
-482 46 0
-482 8 0
483 -482 -706 0
-483 482 0
-483 706 0
484 -889 -481 0
-484 889 0
-484 481 0
485 -26 -15 0
-485 26 0
-485 15 0
486 -485 -2 0
-486 485 0
-486 2 0
487 -890 -484 0
-487 890 0
-487 484 0
488 -746 -23 0
-488 746 0
-488 23 0
489 -488 -824 0
-489 488 0
-489 824 0
490 -891 -487 0
-490 891 0
-490 487 0
491 -23 -1 0
-491 23 0
-491 1 0
492 -491 -694 0
-492 491 0
-492 694 0
493 -892 -490 0
-493 892 0
-493 490 0
494 -774 -31 0
-494 774 0
-494 31 0
495 -494 -49 0
-495 494 0
-495 49 0
496 -893 -493 0
-496 893 0
-496 493 0
497 -34 -13 0
-497 34 0
-497 13 0
498 -497 -10 0
-498 497 0
-498 10 0
499 -894 -496 0
-499 894 0
-499 496 0
500 -41 -833 0
-500 41 0
-500 833 0
501 -500 -12 0
-501 500 0
-501 12 0
502 -895 -499 0
-502 895 0
-502 499 0
503 -43 -19 0
-503 43 0
-503 19 0
504 -503 -758 0
-504 503 0
-504 758 0
505 -896 -502 0
-505 896 0
-505 502 0
506 -700 -693 0
-506 700 0
-506 693 0
507 -506 -712 0
-507 506 0
-507 712 0
508 -897 -505 0
-508 897 0
-508 505 0
509 -45 -40 0
-509 45 0
-509 40 0
510 -509 -710 0
-510 509 0
-510 710 0
511 -898 -508 0
-511 898 0
-511 508 0
512 -824 -42 0
-512 824 0
-512 42 0
513 -512 -35 0
-513 512 0
-513 35 0
514 -899 -511 0
-514 899 0
-514 511 0
515 -780 -35 0
-515 780 0
-515 35 0
516 -515 -3 0
-516 515 0
-516 3 0
517 -900 -514 0
-517 900 0
-517 514 0
518 -11 -1 0
-518 11 0
-518 1 0
519 -518 -780 0
-519 518 0
-519 780 0
520 -901 -517 0
-520 901 0
-520 517 0
521 -44 -756 0
-521 44 0
-521 756 0
522 -521 -780 0
-522 521 0
-522 780 0
523 -902 -520 0
-523 902 0
-523 520 0
524 -786 -4 0
-524 786 0
-524 4 0
525 -524 -774 0
-525 524 0
-525 774 0
526 -903 -523 0
-526 903 0
-526 523 0
527 -195 -833 0
-527 195 0
-527 833 0
528 -904 -526 0
-528 904 0
-528 526 0
529 -49 -704 0
-529 49 0
-529 704 0
530 -529 -30 0
-530 529 0
-530 30 0
531 -905 -528 0
-531 905 0
-531 528 0
532 -748 -14 0
-532 748 0
-532 14 0
533 -532 -2 0
-533 532 0
-533 2 0
534 -906 -531 0
-534 906 0
-534 531 0
535 -46 -787 0
-535 46 0
-535 787 0
536 -535 -3 0
-536 535 0
-536 3 0
537 -907 -534 0
-537 907 0
-537 534 0
538 -39 -840 0
-538 39 0
-538 840 0
539 -538 -15 0
-539 538 0
-539 15 0
540 -908 -537 0
-540 908 0
-540 537 0
541 -780 -22 0
-541 780 0
-541 22 0
542 -541 -725 0
-542 541 0
-542 725 0
543 -909 -540 0
-543 909 0
-543 540 0
544 -9 -2 0
-544 9 0
-544 2 0
545 -544 -716 0
-545 544 0
-545 716 0
546 -910 -543 0
-546 910 0
-546 543 0
547 -794 -13 0
-547 794 0
-547 13 0
548 -547 -765 0
-548 547 0
-548 765 0
549 -911 -546 0
-549 911 0
-549 546 0
550 -45 -794 0
-550 45 0
-550 794 0
551 -550 -881 0
-551 550 0
-551 881 0
552 -912 -549 0
-552 912 0
-552 549 0
553 -40 -787 0
-553 40 0
-553 787 0
554 -553 -30 0
-554 553 0
-554 30 0
555 -913 -552 0
-555 913 0
-555 552 0
556 -758 -840 0
-556 758 0
-556 840 0
557 -556 -50 0
-557 556 0
-557 50 0
558 -914 -555 0
-558 914 0
-558 555 0
559 -808 -23 0
-559 808 0
-559 23 0
560 -559 -716 0
-560 559 0
-560 716 0
561 -915 -558 0
-561 915 0
-561 558 0
562 -787 -23 0
-562 787 0
-562 23 0
563 -562 -3 0
-563 562 0
-563 3 0
564 -916 -561 0
-564 916 0
-564 561 0
565 -743 -733 0
-565 743 0
-565 733 0
566 -565 -712 0
-566 565 0
-566 712 0
567 -917 -564 0
-567 917 0
-567 564 0
568 -780 -21 0
-568 780 0
-568 21 0
569 -568 -738 0
-569 568 0
-569 738 0
570 -918 -567 0
-570 918 0
-570 567 0
571 -23 -13 0
-571 23 0
-571 13 0
572 -571 -19 0
-572 571 0
-572 19 0
573 -919 -570 0
-573 919 0
-573 570 0
574 -49 -41 0
-574 49 0
-574 41 0
575 -574 -39 0
-575 574 0
-575 39 0
576 -920 -573 0
-576 920 0
-576 573 0
577 -31 -714 0
-577 31 0
-577 714 0
578 -577 -10 0
-578 577 0
-578 10 0
579 -921 -576 0
-579 921 0
-579 576 0
580 -713 -709 0
-580 713 0
-580 709 0
581 -580 -9 0
-581 580 0
-581 9 0
582 -922 -579 0
-582 922 0
-582 579 0
583 -42 -6 0
-583 42 0
-583 6 0
584 -583 -881 0
-584 583 0
-584 881 0
585 -923 -582 0
-585 923 0
-585 582 0
586 -710 -15 0
-586 710 0
-586 15 0
587 -586 -702 0
-587 586 0
-587 702 0
588 -924 -585 0
-588 924 0
-588 585 0
589 -706 -7 0
-589 706 0
-589 7 0
590 -589 -10 0
-590 589 0
-590 10 0
591 -925 -588 0
-591 925 0
-591 588 0
592 -27 -767 0
-592 27 0
-592 767 0
593 -592 -833 0
-593 592 0
-593 833 0
594 -926 -591 0
-594 926 0
-594 591 0
595 -765 -1 0
-595 765 0
-595 1 0
596 -595 -6 0
-596 595 0
-596 6 0
597 -927 -594 0
-597 927 0
-597 594 0
598 -42 -28 0
-598 42 0
-598 28 0
599 -598 -768 0
-599 598 0
-599 768 0
600 -928 -597 0
-600 928 0
-600 597 0
601 -731 -19 0
-601 731 0
-601 19 0
602 -601 -30 0
-602 601 0
-602 30 0
603 -929 -600 0
-603 929 0
-603 600 0
604 -92 -694 0
-604 92 0
-604 694 0
605 -930 -603 0
-605 930 0
-605 603 0
606 -285 -737 0
-606 285 0
-606 737 0
607 -931 -605 0
-607 931 0
-607 605 0
608 -38 -11 0
-608 38 0
-608 11 0
609 -608 -706 0
-609 608 0
-609 706 0
610 -932 -607 0
-610 932 0
-610 607 0
611 -27 -794 0
-611 27 0
-611 794 0
612 -611 -35 0
-612 611 0
-612 35 0
613 -933 -610 0
-613 933 0
-613 610 0
614 -45 -833 0
-614 45 0
-614 833 0
615 -614 -738 0
-615 614 0
-615 738 0
616 -934 -613 0
-616 934 0
-616 613 0
617 -712 -702 0
-617 712 0
-617 702 0
618 -617 -3 0
-618 617 0
-618 3 0
619 -935 -616 0
-619 935 0
-619 616 0
620 -40 -702 0
-620 40 0
-620 702 0
621 -620 -808 0
-621 620 0
-621 808 0
622 -936 -619 0
-622 936 0
-622 619 0
623 -172 -50 0
-623 172 0
-623 50 0
624 -937 -622 0
-624 937 0
-624 622 0
625 -50 -27 0
-625 50 0
-625 27 0
626 -625 -702 0
-626 625 0
-626 702 0
627 -938 -624 0
-627 938 0
-627 624 0
628 -49 -756 0
-628 49 0
-628 756 0
629 -628 -697 0
-629 628 0
-629 697 0
630 -939 -627 0
-630 939 0
-630 627 0
631 -23 -6 0
-631 23 0
-631 6 0
632 -631 -16 0
-632 631 0
-632 16 0
633 -940 -630 0
-633 940 0
-633 630 0
634 -694 -733 0
-634 694 0
-634 733 0
635 -634 -18 0
-635 634 0
-635 18 0
636 -941 -633 0
-636 941 0
-636 633 0
637 -30 -24 0
-637 30 0
-637 24 0
638 -637 -10 0
-638 637 0
-638 10 0
639 -942 -636 0
-639 942 0
-639 636 0
640 -32 -725 0
-640 32 0
-640 725 0
641 -640 -39 0
-641 640 0
-641 39 0
642 -943 -639 0
-642 943 0
-642 639 0
643 -778 -13 0
-643 778 0
-643 13 0
644 -643 -821 0
-644 643 0
-644 821 0
645 -944 -642 0
-645 944 0
-645 642 0
646 -778 -1 0
-646 778 0
-646 1 0
647 -646 -43 0
-647 646 0
-647 43 0
648 -945 -645 0
-648 945 0
-648 645 0
649 -725 -778 0
-649 725 0
-649 778 0
650 -649 -710 0
-650 649 0
-650 710 0
651 -946 -648 0
-651 946 0
-651 648 0
652 -872 -787 0
-652 872 0
-652 787 0
653 -652 -16 0
-653 652 0
-653 16 0
654 -947 -651 0
-654 947 0
-654 651 0
655 -32 -714 0
-655 32 0
-655 714 0
656 -655 -16 0
-656 655 0
-656 16 0
657 -948 -654 0
-657 948 0
-657 654 0
658 -730 -5 0
-658 730 0
-658 5 0
659 -658 -768 0
-659 658 0
-659 768 0
660 -949 -657 0
-660 949 0
-660 657 0
661 -786 -29 0
-661 786 0
-661 29 0
662 -661 -716 0
-662 661 0
-662 716 0
663 -950 -660 0
-663 950 0
-663 660 0
664 -631 -767 0
-664 631 0
-664 767 0
665 -951 -663 0
-665 951 0
-665 663 0
666 -767 -6 0
-666 767 0
-666 6 0
667 -666 -30 0
-667 666 0
-667 30 0
668 -952 -665 0
-668 952 0
-668 665 0
669 -824 -748 0
-669 824 0
-669 748 0
670 -669 -3 0
-670 669 0
-670 3 0
671 -953 -668 0
-671 953 0
-671 668 0
672 -730 -802 0
-672 730 0
-672 802 0
673 -672 -694 0
-673 672 0
-673 694 0
674 -954 -671 0
-674 954 0
-674 671 0
675 -758 -693 0
-675 758 0
-675 693 0
676 -675 -811 0
-676 675 0
-676 811 0
677 -955 -674 0
-677 955 0
-677 674 0
678 -802 -1 0
-678 802 0
-678 1 0
679 -678 -702 0
-679 678 0
-679 702 0
680 -956 -677 0
-680 956 0
-680 677 0
681 -41 -778 0
-681 41 0
-681 778 0
682 -681 -7 0
-682 681 0
-682 7 0
683 -957 -680 0
-683 957 0
-683 680 0
684 -737 -746 0
-684 737 0
-684 746 0
685 -684 -39 0
-685 684 0
-685 39 0
686 -958 -683 0
-686 958 0
-686 683 0
687 -786 -707 0
-687 786 0
-687 707 0
688 -687 -808 0
-688 687 0
-688 808 0
689 -959 -686 0
-689 959 0
-689 686 0
690 -722 -714 0
-690 722 0
-690 714 0
691 -690 -40 0
-691 690 0
-691 40 0
692 -960 -689 0
-692 960 0
-692 689 0
-693 -1 0
693 1 0
-694 -5 0
694 5 0
-695 -54 0
695 54 0
-696 -52 0
696 52 0
-697 -7 0
697 7 0
-698 -57 0
698 57 0
-699 -60 0
699 60 0
-700 -11 0
700 11 0
-701 -9 0
701 9 0
-702 -12 0
702 12 0
-703 -63 0
703 63 0
-704 -6 0
704 6 0
-705 -66 0
705 66 0
-706 -15 0
706 15 0
-707 -16 0
707 16 0
-708 -69 0
708 69 0
-709 -13 0
709 13 0
-710 -18 0
710 18 0
-711 -72 0
711 72 0
-712 -20 0
712 20 0
-713 -19 0
713 19 0
-714 -21 0
714 21 0
-715 -75 0
715 75 0
-716 -3 0
716 3 0
-717 -78 0
717 78 0
-718 -81 0
718 81 0
-719 -24 0
719 24 0
-720 -84 0
720 84 0
-721 -87 0
721 87 0
-722 -26 0
722 26 0
-723 -90 0
723 90 0
-724 -93 0
724 93 0
-725 -29 0
725 29 0
-726 -95 0
726 95 0
-727 -98 0
727 98 0
-728 -101 0
728 101 0
-729 -104 0
729 104 0
-730 -23 0
730 23 0
-731 -32 0
731 32 0
-732 -107 0
732 107 0
-733 -4 0
733 4 0
-734 -110 0
734 110 0
-735 -34 0
735 34 0
-736 -113 0
736 113 0
-737 -35 0
737 35 0
-738 -30 0
738 30 0
-739 -116 0
739 116 0
-740 -31 0
740 31 0
-741 -119 0
741 119 0
-742 -122 0
742 122 0
-743 -36 0
743 36 0
-744 -125 0
744 125 0
-745 -128 0
745 128 0
-746 -25 0
746 25 0
-747 -131 0
747 131 0
-748 -39 0
748 39 0
-749 -134 0
749 134 0
-750 -137 0
750 137 0
-751 -140 0
751 140 0
-752 -143 0
752 143 0
-753 -146 0
753 146 0
-754 -149 0
754 149 0
-755 -152 0
755 152 0
-756 -38 0
756 38 0
-757 -155 0
757 155 0
-758 -41 0
758 41 0
-759 -158 0
759 158 0
-760 -161 0
760 161 0
-761 -164 0
761 164 0
-762 -167 0
762 167 0
-763 -170 0
763 170 0
-764 -173 0
764 173 0
-765 -8 0
765 8 0
-766 -176 0
766 176 0
-767 -14 0
767 14 0
-768 -10 0
768 10 0
-769 -179 0
769 179 0
-770 -182 0
770 182 0
-771 -185 0
771 185 0
-772 -187 0
772 187 0
-773 -190 0
773 190 0
-774 -45 0
774 45 0
-775 -193 0
775 193 0
-776 -196 0
776 196 0
-777 -199 0
777 199 0
-778 -28 0
778 28 0
-779 -202 0
779 202 0
-780 -46 0
780 46 0
-781 -205 0
781 205 0
-782 -208 0
782 208 0
-783 -211 0
783 211 0
-784 -214 0
784 214 0
-785 -217 0
785 217 0
-786 -44 0
786 44 0
-787 -37 0
787 37 0
-788 -33 0
788 33 0
-789 -220 0
789 220 0
-790 -223 0
790 223 0
-791 -226 0
791 226 0
-792 -229 0
792 229 0
-793 -232 0
793 232 0
-794 -17 0
794 17 0
-795 -235 0
795 235 0
-796 -238 0
796 238 0
-797 -241 0
797 241 0
-798 -244 0
798 244 0
-799 -247 0
799 247 0
-800 -250 0
800 250 0
-801 -253 0
801 253 0
-802 -22 0
802 22 0
-803 -256 0
803 256 0
-804 -259 0
804 259 0
-805 -262 0
805 262 0
-806 -43 0
806 43 0
-807 -265 0
807 265 0
-808 -48 0
808 48 0
-809 -268 0
809 268 0
-810 -271 0
810 271 0
-811 -2 0
811 2 0
-812 -274 0
812 274 0
-813 -277 0
813 277 0
-814 -280 0
814 280 0
-815 -283 0
815 283 0
-816 -286 0
816 286 0
-817 -289 0
817 289 0
-818 -292 0
818 292 0
-819 -295 0
819 295 0
-820 -298 0
820 298 0
-821 -47 0
821 47 0
-822 -301 0
822 301 0
-823 -304 0
823 304 0
-824 -49 0
824 49 0
-825 -307 0
825 307 0
-826 -310 0
826 310 0
-827 -313 0
827 313 0
-828 -316 0
828 316 0
-829 -319 0
829 319 0
-830 -321 0
830 321 0
-831 -324 0
831 324 0
-832 -327 0
832 327 0
-833 -40 0
833 40 0
-834 -330 0
834 330 0
-835 -333 0
835 333 0
-836 -336 0
836 336 0
-837 -339 0
837 339 0
-838 -342 0
838 342 0
-839 -345 0
839 345 0
-840 -27 0
840 27 0
-841 -348 0
841 348 0
-842 -350 0
842 350 0
-843 -353 0
843 353 0
-844 -356 0
844 356 0
-845 -359 0
845 359 0
-846 -362 0
846 362 0
-847 -365 0
847 365 0
-848 -368 0
848 368 0
-849 -371 0
849 371 0
-850 -374 0
850 374 0
-851 -377 0
851 377 0
-852 -379 0
852 379 0
-853 -382 0
853 382 0
-854 -385 0
854 385 0
-855 -388 0
855 388 0
-856 -391 0
856 391 0
-857 -394 0
857 394 0
-858 -397 0
858 397 0
-859 -400 0
859 400 0
-860 -403 0
860 403 0
-861 -406 0
861 406 0
-862 -409 0
862 409 0
-863 -412 0
863 412 0
-864 -415 0
864 415 0
-865 -418 0
865 418 0
-866 -421 0
866 421 0
-867 -424 0
867 424 0
-868 -427 0
868 427 0
-869 -430 0
869 430 0
-870 -433 0
870 433 0
-871 -436 0
871 436 0
-872 -42 0
872 42 0
-873 -439 0
873 439 0
-874 -442 0
874 442 0
-875 -445 0
875 445 0
-876 -448 0
876 448 0
-877 -451 0
877 451 0
-878 -454 0
878 454 0
-879 -457 0
879 457 0
-880 -460 0
880 460 0
-881 -50 0
881 50 0
-882 -463 0
882 463 0
-883 -466 0
883 466 0
-884 -469 0
884 469 0
-885 -472 0
885 472 0
-886 -475 0
886 475 0
-887 -477 0
887 477 0
-888 -480 0
888 480 0
-889 -483 0
889 483 0
-890 -486 0
890 486 0
-891 -489 0
891 489 0
-892 -492 0
892 492 0
-893 -495 0
893 495 0
-894 -498 0
894 498 0
-895 -501 0
895 501 0
-896 -504 0
896 504 0
-897 -507 0
897 507 0
-898 -510 0
898 510 0
-899 -513 0
899 513 0
-900 -516 0
900 516 0
-901 -519 0
901 519 0
-902 -522 0
902 522 0
-903 -525 0
903 525 0
-904 -527 0
904 527 0
-905 -530 0
905 530 0
-906 -533 0
906 533 0
-907 -536 0
907 536 0
-908 -539 0
908 539 0
-909 -542 0
909 542 0
-910 -545 0
910 545 0
-911 -548 0
911 548 0
-912 -551 0
912 551 0
-913 -554 0
913 554 0
-914 -557 0
914 557 0
-915 -560 0
915 560 0
-916 -563 0
916 563 0
-917 -566 0
917 566 0
-918 -569 0
918 569 0
-919 -572 0
919 572 0
-920 -575 0
920 575 0
-921 -578 0
921 578 0
-922 -581 0
922 581 0
-923 -584 0
923 584 0
-924 -587 0
924 587 0
-925 -590 0
925 590 0
-926 -593 0
926 593 0
-927 -596 0
927 596 0
-928 -599 0
928 599 0
-929 -602 0
929 602 0
-930 -604 0
930 604 0
-931 -606 0
931 606 0
-932 -609 0
932 609 0
-933 -612 0
933 612 0
-934 -615 0
934 615 0
-935 -618 0
935 618 0
-936 -621 0
936 621 0
-937 -623 0
937 623 0
-938 -626 0
938 626 0
-939 -629 0
939 629 0
-940 -632 0
940 632 0
-941 -635 0
941 635 0
-942 -638 0
942 638 0
-943 -641 0
943 641 0
-944 -644 0
944 644 0
-945 -647 0
945 647 0
-946 -650 0
946 650 0
-947 -653 0
947 653 0
-948 -656 0
948 656 0
-949 -659 0
949 659 0
-950 -662 0
950 662 0
-951 -664 0
951 664 0
-952 -667 0
952 667 0
-953 -670 0
953 670 0
-954 -673 0
954 673 0
-955 -676 0
955 676 0
-956 -679 0
956 679 0
-957 -682 0
957 682 0
-958 -685 0
958 685 0
-959 -688 0
959 688 0
-960 -691 0
960 691 0
692 0
